p cnf 893 2323
a 1 2 3 4 5 6 7 8 9 10 11 12 13 14 15 16 17 18 19 20 21 22 23 24 25 26 27 28 29 30 31 32 33 34 35 36 37 38 39 40 41 42 43 44 45 46 47 48 49 50 51 52 53 54 55 56 57 58 59 60 61 62 63 64 65 66 67 68 69 70 71 72 73 74 75 76 77 78 79 80 81 82 83 84 85 86 87 88 89 90 91 92 93 94 95 96 0
e 97 98 99 100 101 102 103 104 105 106 107 108 109 110 111 112 113 114 115 116 117 118 119 120 121 122 123 124 125 126 127 128 129 130 131 132 133 134 135 136 137 138 139 140 141 142 143 144 145 146 147 148 149 150 151 152 153 154 155 156 157 158 159 160 161 162 163 164 165 166 167 168 169 170 171 172 173 174 175 176 177 178 179 180 181 182 183 184 185 186 187 188 189 190 191 192 193 194 195 196 197 198 199 200 201 202 203 204 205 206 207 208 209 210 211 212 213 214 215 216 217 218 219 220 221 222 223 224 225 226 227 228 229 230 231 232 233 234 235 236 237 238 239 240 241 242 243 244 245 246 247 248 249 250 251 252 253 254 255 256 257 258 259 260 261 262 263 264 265 266 267 268 269 270 271 272 273 274 275 276 277 278 279 280 281 282 283 284 285 286 287 288 289 290 291 292 293 294 295 296 297 298 299 300 301 302 303 304 305 306 307 308 309 310 311 312 313 314 315 316 317 318 319 320 321 322 323 324 325 326 327 328 329 330 331 332 333 334 335 336 337 338 339 340 341 342 343 344 345 346 347 348 349 350 351 352 353 354 355 356 357 358 359 360 361 362 363 364 365 366 367 368 369 370 371 372 373 374 375 376 377 378 379 380 381 382 383 384 385 386 387 388 389 390 391 392 393 394 395 396 397 398 399 400 401 402 403 404 405 406 407 408 409 410 411 412 413 414 415 416 417 418 419 420 421 422 423 424 425 426 427 428 429 430 431 432 433 434 435 436 437 438 439 440 441 442 443 444 445 446 447 448 449 450 451 452 453 454 455 456 457 458 459 460 461 462 463 464 465 466 467 468 469 470 471 472 473 474 475 476 477 478 479 480 481 482 483 484 485 486 487 488 489 490 491 492 493 494 495 496 497 498 499 500 501 502 503 504 505 506 507 508 509 510 511 512 513 514 515 516 517 518 519 520 521 522 523 524 525 526 527 528 529 530 531 532 533 534 535 536 537 538 539 540 541 542 543 544 545 546 547 548 549 550 551 552 553 554 555 556 557 558 559 560 561 562 563 564 565 566 567 568 569 570 571 572 573 574 575 576 577 578 579 580 581 582 583 584 585 586 587 588 589 590 591 592 593 594 595 596 597 598 599 600 601 602 603 604 605 606 607 608 609 610 611 612 613 614 615 616 617 618 619 620 621 622 623 624 625 626 627 628 629 630 631 632 633 634 635 636 637 638 639 640 641 642 643 644 645 646 647 648 649 650 651 652 653 654 655 656 657 658 659 660 661 662 663 664 665 666 667 668 669 670 671 672 673 674 675 676 677 678 679 680 681 682 683 684 685 686 687 688 689 690 691 692 693 694 695 696 697 698 699 700 701 702 703 704 705 706 707 708 709 710 711 712 713 714 715 716 717 718 719 720 721 722 723 724 725 726 727 728 729 730 731 732 733 734 735 736 737 738 739 740 741 742 743 744 745 746 747 748 749 750 751 752 753 754 755 756 757 758 759 760 761 762 763 764 765 766 767 768 769 770 771 772 773 774 775 776 777 778 779 780 781 782 783 784 785 786 787 788 789 790 791 792 793 794 795 796 797 798 799 800 801 802 803 804 805 806 807 808 809 810 811 812 813 814 815 816 817 818 819 820 821 822 823 824 825 826 827 828 829 830 831 832 833 834 835 836 837 838 839 840 841 842 843 844 845 846 847 848 849 850 851 852 853 854 855 856 857 858 859 860 861 862 863 864 865 866 867 868 869 870 871 872 873 874 875 876 877 878 879 880 881 882 883 884 885 886 887 888 889 890 891 0
113 -97 0
-113 97 0
114 98 -113 0
114 -98 113 0
-114 98 113 0
-114 -98 -113 0
115 -98 -113 0
-115 113 0
-115 98 0
116 -115 0
-116 115 0
117 99 -116 0
117 -99 116 0
-117 99 116 0
-117 -99 -116 0
118 -99 -116 0
-118 116 0
-118 99 0
119 -118 0
-119 118 0
120 100 -119 0
120 -100 119 0
-120 100 119 0
-120 -100 -119 0
121 -100 -119 0
-121 119 0
-121 100 0
122 -121 0
-122 121 0
123 101 -122 0
123 -101 122 0
-123 101 122 0
-123 -101 -122 0
124 -101 -122 0
-124 122 0
-124 101 0
125 -124 0
-125 124 0
126 102 -125 0
126 -102 125 0
-126 102 125 0
-126 -102 -125 0
127 -102 -125 0
-127 125 0
-127 102 0
128 -127 0
-128 127 0
129 103 -128 0
129 -103 128 0
-129 103 128 0
-129 -103 -128 0
130 -103 -128 0
-130 128 0
-130 103 0
131 -130 0
-131 130 0
132 104 -131 0
132 -104 131 0
-132 104 131 0
-132 -104 -131 0
133 -104 -131 0
-133 131 0
-133 104 0
134 -133 0
-134 133 0
135 105 -134 0
135 -105 134 0
-135 105 134 0
-135 -105 -134 0
136 -105 -134 0
-136 134 0
-136 105 0
137 -136 0
-137 136 0
138 106 -137 0
138 -106 137 0
-138 106 137 0
-138 -106 -137 0
139 -106 -137 0
-139 137 0
-139 106 0
140 -139 0
-140 139 0
141 107 -140 0
141 -107 140 0
-141 107 140 0
-141 -107 -140 0
142 -107 -140 0
-142 140 0
-142 107 0
143 -142 0
-143 142 0
144 108 -143 0
144 -108 143 0
-144 108 143 0
-144 -108 -143 0
145 -108 -143 0
-145 143 0
-145 108 0
146 -145 0
-146 145 0
147 109 -146 0
147 -109 146 0
-147 109 146 0
-147 -109 -146 0
148 -109 -146 0
-148 146 0
-148 109 0
149 -148 0
-149 148 0
150 110 -149 0
150 -110 149 0
-150 110 149 0
-150 -110 -149 0
151 -110 -149 0
-151 149 0
-151 110 0
152 -151 0
-152 151 0
153 111 -152 0
153 -111 152 0
-153 111 152 0
-153 -111 -152 0
154 -111 -152 0
-154 152 0
-154 111 0
155 -154 0
-155 154 0
156 112 -155 0
156 -112 155 0
-156 112 155 0
-156 -112 -155 0
157 -112 -155 0
-157 155 0
-157 112 0
158 -157 0
-158 157 0
159 -97 -114 117 120 123 126 129 132 135 138 141 144 147 150 153 156 0
-159 -156 0
-159 -153 0
-159 -150 0
-159 -147 0
-159 -144 0
-159 -141 0
-159 -138 0
-159 -135 0
-159 -132 0
-159 -129 0
-159 -126 0
-159 -123 0
-159 -120 0
-159 -117 0
-159 114 0
-159 97 0
176 -97 160 0
176 97 -160 0
-176 97 160 0
-176 -97 -160 0
177 -98 161 0
177 98 -161 0
-177 98 161 0
-177 -98 -161 0
178 -99 162 0
178 99 -162 0
-178 99 162 0
-178 -99 -162 0
179 -100 163 0
179 100 -163 0
-179 100 163 0
-179 -100 -163 0
180 -101 164 0
180 101 -164 0
-180 101 164 0
-180 -101 -164 0
181 -102 165 0
181 102 -165 0
-181 102 165 0
-181 -102 -165 0
182 -103 166 0
182 103 -166 0
-182 103 166 0
-182 -103 -166 0
183 -104 167 0
183 104 -167 0
-183 104 167 0
-183 -104 -167 0
184 -105 168 0
184 105 -168 0
-184 105 168 0
-184 -105 -168 0
185 -106 169 0
185 106 -169 0
-185 106 169 0
-185 -106 -169 0
186 -107 170 0
186 107 -170 0
-186 107 170 0
-186 -107 -170 0
187 -108 171 0
187 108 -171 0
-187 108 171 0
-187 -108 -171 0
188 -109 172 0
188 109 -172 0
-188 109 172 0
-188 -109 -172 0
189 -110 173 0
189 110 -173 0
-189 110 173 0
-189 -110 -173 0
190 -111 174 0
190 111 -174 0
-190 111 174 0
-190 -111 -174 0
191 -112 175 0
191 112 -175 0
-191 112 175 0
-191 -112 -175 0
192 176 177 178 179 180 181 182 183 184 185 186 187 188 189 190 191 0
-192 -191 0
-192 -190 0
-192 -189 0
-192 -188 0
-192 -187 0
-192 -186 0
-192 -185 0
-192 -184 0
-192 -183 0
-192 -182 0
-192 -181 0
-192 -180 0
-192 -179 0
-192 -178 0
-192 -177 0
-192 -176 0
225 193 -209 0
225 -193 209 0
-225 193 209 0
-225 -193 -209 0
226 194 -210 0
226 -194 210 0
-226 194 210 0
-226 -194 -210 0
227 195 -211 0
227 -195 211 0
-227 195 211 0
-227 -195 -211 0
228 196 -212 0
228 -196 212 0
-228 196 212 0
-228 -196 -212 0
229 197 -213 0
229 -197 213 0
-229 197 213 0
-229 -197 -213 0
230 198 -214 0
230 -198 214 0
-230 198 214 0
-230 -198 -214 0
231 199 -215 0
231 -199 215 0
-231 199 215 0
-231 -199 -215 0
232 200 -216 0
232 -200 216 0
-232 200 216 0
-232 -200 -216 0
233 201 -217 0
233 -201 217 0
-233 201 217 0
-233 -201 -217 0
234 202 -218 0
234 -202 218 0
-234 202 218 0
-234 -202 -218 0
235 203 -219 0
235 -203 219 0
-235 203 219 0
-235 -203 -219 0
236 204 -220 0
236 -204 220 0
-236 204 220 0
-236 -204 -220 0
237 205 -221 0
237 -205 221 0
-237 205 221 0
-237 -205 -221 0
238 206 -222 0
238 -206 222 0
-238 206 222 0
-238 -206 -222 0
239 207 -223 0
239 -207 223 0
-239 207 223 0
-239 -207 -223 0
240 208 -224 0
240 -208 224 0
-240 208 224 0
-240 -208 -224 0
241 225 226 227 228 229 230 231 232 233 234 235 236 237 238 239 240 0
-241 -240 0
-241 -239 0
-241 -238 0
-241 -237 0
-241 -236 0
-241 -235 0
-241 -234 0
-241 -233 0
-241 -232 0
-241 -231 0
-241 -230 0
-241 -229 0
-241 -228 0
-241 -227 0
-241 -226 0
-241 -225 0
274 242 -258 0
274 -242 258 0
-274 242 258 0
-274 -242 -258 0
275 243 -259 0
275 -243 259 0
-275 243 259 0
-275 -243 -259 0
276 244 -260 0
276 -244 260 0
-276 244 260 0
-276 -244 -260 0
277 245 -261 0
277 -245 261 0
-277 245 261 0
-277 -245 -261 0
278 246 -262 0
278 -246 262 0
-278 246 262 0
-278 -246 -262 0
279 247 -263 0
279 -247 263 0
-279 247 263 0
-279 -247 -263 0
280 248 -264 0
280 -248 264 0
-280 248 264 0
-280 -248 -264 0
281 249 -265 0
281 -249 265 0
-281 249 265 0
-281 -249 -265 0
282 250 -266 0
282 -250 266 0
-282 250 266 0
-282 -250 -266 0
283 251 -267 0
283 -251 267 0
-283 251 267 0
-283 -251 -267 0
284 252 -268 0
284 -252 268 0
-284 252 268 0
-284 -252 -268 0
285 253 -269 0
285 -253 269 0
-285 253 269 0
-285 -253 -269 0
286 254 -270 0
286 -254 270 0
-286 254 270 0
-286 -254 -270 0
287 255 -271 0
287 -255 271 0
-287 255 271 0
-287 -255 -271 0
288 256 -272 0
288 -256 272 0
-288 256 272 0
-288 -256 -272 0
289 257 -273 0
289 -257 273 0
-289 257 273 0
-289 -257 -273 0
290 274 275 276 277 278 279 280 281 282 283 284 285 286 287 288 289 0
-290 -289 0
-290 -288 0
-290 -287 0
-290 -286 0
-290 -285 0
-290 -284 0
-290 -283 0
-290 -282 0
-290 -281 0
-290 -280 0
-290 -279 0
-290 -278 0
-290 -277 0
-290 -276 0
-290 -275 0
-290 -274 0
291 -97 0
-291 97 0
292 -98 -291 0
-292 291 0
-292 98 0
293 -292 0
-293 292 0
294 -99 -293 0
-294 293 0
-294 99 0
295 -293 0
295 -294 0
295 -99 0
-295 99 293 294 0
296 -100 -295 0
-296 295 0
-296 100 0
297 -295 0
297 -296 0
297 -100 0
-297 100 295 296 0
298 -101 -297 0
-298 297 0
-298 101 0
299 -297 0
299 -298 0
299 -101 0
-299 101 297 298 0
300 -102 -299 0
-300 299 0
-300 102 0
301 -299 0
301 -300 0
301 -102 0
-301 102 299 300 0
302 -103 -301 0
-302 301 0
-302 103 0
303 -301 0
303 -302 0
303 -103 0
-303 103 301 302 0
304 -104 -303 0
-304 303 0
-304 104 0
305 -303 0
305 -304 0
305 -104 0
-305 104 303 304 0
306 -105 -305 0
-306 305 0
-306 105 0
307 -305 0
307 -306 0
307 -105 0
-307 105 305 306 0
308 -106 -307 0
-308 307 0
-308 106 0
309 -307 0
309 -308 0
309 -106 0
-309 106 307 308 0
310 -107 -309 0
-310 309 0
-310 107 0
311 -309 0
311 -310 0
311 -107 0
-311 107 309 310 0
312 -108 -311 0
-312 311 0
-312 108 0
313 -311 0
313 -312 0
313 -108 0
-313 108 311 312 0
314 -109 -313 0
-314 313 0
-314 109 0
315 -313 0
315 -314 0
315 -109 0
-315 109 313 314 0
316 -110 -315 0
-316 315 0
-316 110 0
317 -315 0
317 -316 0
317 -110 0
-317 110 315 316 0
318 -111 -317 0
-318 317 0
-318 111 0
319 -317 0
319 -318 0
319 -111 0
-319 111 317 318 0
320 -112 -319 0
-320 319 0
-320 112 0
321 -319 0
321 -320 0
321 -112 0
-321 112 319 320 0
323 0
-323 321 -322 0
324 211 0
-324 -211 0
325 -212 -324 0
325 212 324 0
-325 -212 324 0
-325 212 -324 0
326 212 -324 0
-326 324 0
-326 -212 0
327 -326 0
-327 326 0
328 -213 -327 0
328 213 327 0
-328 -213 327 0
-328 213 -327 0
329 213 -327 0
-329 327 0
-329 -213 0
330 -329 0
-330 329 0
331 -214 -330 0
331 214 330 0
-331 -214 330 0
-331 214 -330 0
332 214 -330 0
-332 330 0
-332 -214 0
333 -332 0
-333 332 0
334 -215 -333 0
334 215 333 0
-334 -215 333 0
-334 215 -333 0
335 215 -333 0
-335 333 0
-335 -215 0
336 -335 0
-336 335 0
337 -216 -336 0
337 216 336 0
-337 -216 336 0
-337 216 -336 0
338 216 -336 0
-338 336 0
-338 -216 0
339 -338 0
-339 338 0
340 -217 -339 0
340 217 339 0
-340 -217 339 0
-340 217 -339 0
341 217 -339 0
-341 339 0
-341 -217 0
342 -341 0
-342 341 0
343 -218 -342 0
343 218 342 0
-343 -218 342 0
-343 218 -342 0
344 218 -342 0
-344 342 0
-344 -218 0
345 -344 0
-345 344 0
346 -219 -345 0
346 219 345 0
-346 -219 345 0
-346 219 -345 0
347 219 -345 0
-347 345 0
-347 -219 0
348 -347 0
-348 347 0
349 -220 -348 0
349 220 348 0
-349 -220 348 0
-349 220 -348 0
350 220 -348 0
-350 348 0
-350 -220 0
351 -350 0
-351 350 0
352 -221 -351 0
352 221 351 0
-352 -221 351 0
-352 221 -351 0
353 221 -351 0
-353 351 0
-353 -221 0
354 -353 0
-354 353 0
355 -222 -354 0
355 222 354 0
-355 -222 354 0
-355 222 -354 0
356 222 -354 0
-356 354 0
-356 -222 0
357 -356 0
-357 356 0
358 -223 -357 0
358 223 357 0
-358 -223 357 0
-358 223 -357 0
359 223 -357 0
-359 357 0
-359 -223 0
360 -359 0
-360 359 0
361 -224 -360 0
361 224 360 0
-361 -224 360 0
-361 224 -360 0
362 224 -360 0
-362 360 0
-362 -224 0
363 -362 0
-363 362 0
364 -361 0
364 -358 0
364 -355 0
364 -352 0
364 -349 0
364 -346 0
364 -343 0
364 -340 0
364 -337 0
364 -334 0
364 -331 0
364 -328 0
364 -325 0
364 -211 0
364 210 0
364 209 0
-364 -209 -210 211 325 328 331 334 337 340 343 346 349 352 355 358 361 0
365 364 0
365 363 0
-365 -363 -364 0
367 0
-367 365 -366 0
368 1 -160 0
368 -1 160 0
-368 1 160 0
-368 -1 -160 0
369 2 -161 0
369 -2 161 0
-369 2 161 0
-369 -2 -161 0
370 3 -162 0
370 -3 162 0
-370 3 162 0
-370 -3 -162 0
371 4 -163 0
371 -4 163 0
-371 4 163 0
-371 -4 -163 0
372 5 -164 0
372 -5 164 0
-372 5 164 0
-372 -5 -164 0
373 6 -165 0
373 -6 165 0
-373 6 165 0
-373 -6 -165 0
374 7 -166 0
374 -7 166 0
-374 7 166 0
-374 -7 -166 0
375 8 -167 0
375 -8 167 0
-375 8 167 0
-375 -8 -167 0
376 9 -168 0
376 -9 168 0
-376 9 168 0
-376 -9 -168 0
377 10 -169 0
377 -10 169 0
-377 10 169 0
-377 -10 -169 0
378 11 -170 0
378 -11 170 0
-378 11 170 0
-378 -11 -170 0
379 12 -171 0
379 -12 171 0
-379 12 171 0
-379 -12 -171 0
380 13 -172 0
380 -13 172 0
-380 13 172 0
-380 -13 -172 0
381 14 -173 0
381 -14 173 0
-381 14 173 0
-381 -14 -173 0
382 15 -174 0
382 -15 174 0
-382 15 174 0
-382 -15 -174 0
383 16 -175 0
383 -16 175 0
-383 16 175 0
-383 -16 -175 0
384 368 369 370 371 372 373 374 375 376 377 378 379 380 381 382 383 0
-384 -383 0
-384 -382 0
-384 -381 0
-384 -380 0
-384 -379 0
-384 -378 0
-384 -377 0
-384 -376 0
-384 -375 0
-384 -374 0
-384 -373 0
-384 -372 0
-384 -371 0
-384 -370 0
-384 -369 0
-384 -368 0
385 -49 50 51 52 53 54 55 56 57 58 59 60 61 62 63 64 0
-385 -64 0
-385 -63 0
-385 -62 0
-385 -61 0
-385 -60 0
-385 -59 0
-385 -58 0
-385 -57 0
-385 -56 0
-385 -55 0
-385 -54 0
-385 -53 0
-385 -52 0
-385 -51 0
-385 -50 0
-385 49 0
386 17 -193 0
386 -17 193 0
-386 17 193 0
-386 -17 -193 0
387 18 -194 0
387 -18 194 0
-387 18 194 0
-387 -18 -194 0
388 19 -195 0
388 -19 195 0
-388 19 195 0
-388 -19 -195 0
389 20 -196 0
389 -20 196 0
-389 20 196 0
-389 -20 -196 0
390 21 -197 0
390 -21 197 0
-390 21 197 0
-390 -21 -197 0
391 22 -198 0
391 -22 198 0
-391 22 198 0
-391 -22 -198 0
392 23 -199 0
392 -23 199 0
-392 23 199 0
-392 -23 -199 0
393 24 -200 0
393 -24 200 0
-393 24 200 0
-393 -24 -200 0
394 25 -201 0
394 -25 201 0
-394 25 201 0
-394 -25 -201 0
395 26 -202 0
395 -26 202 0
-395 26 202 0
-395 -26 -202 0
396 27 -203 0
396 -27 203 0
-396 27 203 0
-396 -27 -203 0
397 28 -204 0
397 -28 204 0
-397 28 204 0
-397 -28 -204 0
398 29 -205 0
398 -29 205 0
-398 29 205 0
-398 -29 -205 0
399 30 -206 0
399 -30 206 0
-399 30 206 0
-399 -30 -206 0
400 31 -207 0
400 -31 207 0
-400 31 207 0
-400 -31 -207 0
401 32 -208 0
401 -32 208 0
-401 32 208 0
-401 -32 -208 0
402 386 387 388 389 390 391 392 393 394 395 396 397 398 399 400 401 0
-402 -401 0
-402 -400 0
-402 -399 0
-402 -398 0
-402 -397 0
-402 -396 0
-402 -395 0
-402 -394 0
-402 -393 0
-402 -392 0
-402 -391 0
-402 -390 0
-402 -389 0
-402 -388 0
-402 -387 0
-402 -386 0
403 -209 0
-403 209 0
404 210 -403 0
404 -210 403 0
-404 210 403 0
-404 -210 -403 0
405 -210 -403 0
-405 403 0
-405 210 0
406 -405 0
-406 405 0
407 211 -406 0
407 -211 406 0
-407 211 406 0
-407 -211 -406 0
408 -211 -406 0
-408 406 0
-408 211 0
409 -408 0
-409 408 0
410 212 -409 0
410 -212 409 0
-410 212 409 0
-410 -212 -409 0
411 -212 -409 0
-411 409 0
-411 212 0
412 -411 0
-412 411 0
413 213 -412 0
413 -213 412 0
-413 213 412 0
-413 -213 -412 0
414 -213 -412 0
-414 412 0
-414 213 0
415 -414 0
-415 414 0
416 214 -415 0
416 -214 415 0
-416 214 415 0
-416 -214 -415 0
417 -214 -415 0
-417 415 0
-417 214 0
418 -417 0
-418 417 0
419 215 -418 0
419 -215 418 0
-419 215 418 0
-419 -215 -418 0
420 -215 -418 0
-420 418 0
-420 215 0
421 -420 0
-421 420 0
422 216 -421 0
422 -216 421 0
-422 216 421 0
-422 -216 -421 0
423 -216 -421 0
-423 421 0
-423 216 0
424 -423 0
-424 423 0
425 217 -424 0
425 -217 424 0
-425 217 424 0
-425 -217 -424 0
426 -217 -424 0
-426 424 0
-426 217 0
427 -426 0
-427 426 0
428 218 -427 0
428 -218 427 0
-428 218 427 0
-428 -218 -427 0
429 -218 -427 0
-429 427 0
-429 218 0
430 -429 0
-430 429 0
431 219 -430 0
431 -219 430 0
-431 219 430 0
-431 -219 -430 0
432 -219 -430 0
-432 430 0
-432 219 0
433 -432 0
-433 432 0
434 220 -433 0
434 -220 433 0
-434 220 433 0
-434 -220 -433 0
435 -220 -433 0
-435 433 0
-435 220 0
436 -435 0
-436 435 0
437 221 -436 0
437 -221 436 0
-437 221 436 0
-437 -221 -436 0
438 -221 -436 0
-438 436 0
-438 221 0
439 -438 0
-439 438 0
440 222 -439 0
440 -222 439 0
-440 222 439 0
-440 -222 -439 0
441 -222 -439 0
-441 439 0
-441 222 0
442 -441 0
-442 441 0
443 223 -442 0
443 -223 442 0
-443 223 442 0
-443 -223 -442 0
444 -223 -442 0
-444 442 0
-444 223 0
445 -444 0
-445 444 0
446 224 -445 0
446 -224 445 0
-446 224 445 0
-446 -224 -445 0
447 -224 -445 0
-447 445 0
-447 224 0
448 -447 0
-448 447 0
449 65 209 0
449 -65 -209 0
-449 65 -209 0
-449 -65 209 0
450 66 -404 0
450 -66 404 0
-450 66 404 0
-450 -66 -404 0
451 67 -407 0
451 -67 407 0
-451 67 407 0
-451 -67 -407 0
452 68 -410 0
452 -68 410 0
-452 68 410 0
-452 -68 -410 0
453 69 -413 0
453 -69 413 0
-453 69 413 0
-453 -69 -413 0
454 70 -416 0
454 -70 416 0
-454 70 416 0
-454 -70 -416 0
455 71 -419 0
455 -71 419 0
-455 71 419 0
-455 -71 -419 0
456 72 -422 0
456 -72 422 0
-456 72 422 0
-456 -72 -422 0
457 73 -425 0
457 -73 425 0
-457 73 425 0
-457 -73 -425 0
458 74 -428 0
458 -74 428 0
-458 74 428 0
-458 -74 -428 0
459 75 -431 0
459 -75 431 0
-459 75 431 0
-459 -75 -431 0
460 76 -434 0
460 -76 434 0
-460 76 434 0
-460 -76 -434 0
461 77 -437 0
461 -77 437 0
-461 77 437 0
-461 -77 -437 0
462 78 -440 0
462 -78 440 0
-462 78 440 0
-462 -78 -440 0
463 79 -443 0
463 -79 443 0
-463 79 443 0
-463 -79 -443 0
464 80 -446 0
464 -80 446 0
-464 80 446 0
-464 -80 -446 0
465 449 450 451 452 453 454 455 456 457 458 459 460 461 462 463 464 0
-465 -464 0
-465 -463 0
-465 -462 0
-465 -461 0
-465 -460 0
-465 -459 0
-465 -458 0
-465 -457 0
-465 -456 0
-465 -455 0
-465 -454 0
-465 -453 0
-465 -452 0
-465 -451 0
-465 -450 0
-465 -449 0
466 33 -242 0
466 -33 242 0
-466 33 242 0
-466 -33 -242 0
467 34 -243 0
467 -34 243 0
-467 34 243 0
-467 -34 -243 0
468 35 -244 0
468 -35 244 0
-468 35 244 0
-468 -35 -244 0
469 36 -245 0
469 -36 245 0
-469 36 245 0
-469 -36 -245 0
470 37 -246 0
470 -37 246 0
-470 37 246 0
-470 -37 -246 0
471 38 -247 0
471 -38 247 0
-471 38 247 0
-471 -38 -247 0
472 39 -248 0
472 -39 248 0
-472 39 248 0
-472 -39 -248 0
473 40 -249 0
473 -40 249 0
-473 40 249 0
-473 -40 -249 0
474 41 -250 0
474 -41 250 0
-474 41 250 0
-474 -41 -250 0
475 42 -251 0
475 -42 251 0
-475 42 251 0
-475 -42 -251 0
476 43 -252 0
476 -43 252 0
-476 43 252 0
-476 -43 -252 0
477 44 -253 0
477 -44 253 0
-477 44 253 0
-477 -44 -253 0
478 45 -254 0
478 -45 254 0
-478 45 254 0
-478 -45 -254 0
479 46 -255 0
479 -46 255 0
-479 46 255 0
-479 -46 -255 0
480 47 -256 0
480 -47 256 0
-480 47 256 0
-480 -47 -256 0
481 48 -257 0
481 -48 257 0
-481 48 257 0
-481 -48 -257 0
482 466 467 468 469 470 471 472 473 474 475 476 477 478 479 480 481 0
-482 -481 0
-482 -480 0
-482 -479 0
-482 -478 0
-482 -477 0
-482 -476 0
-482 -475 0
-482 -474 0
-482 -473 0
-482 -472 0
-482 -471 0
-482 -470 0
-482 -469 0
-482 -468 0
-482 -467 0
-482 -466 0
483 81 -258 0
483 -81 258 0
-483 81 258 0
-483 -81 -258 0
484 82 -259 0
484 -82 259 0
-484 82 259 0
-484 -82 -259 0
485 83 -260 0
485 -83 260 0
-485 83 260 0
-485 -83 -260 0
486 84 -261 0
486 -84 261 0
-486 84 261 0
-486 -84 -261 0
487 85 -262 0
487 -85 262 0
-487 85 262 0
-487 -85 -262 0
488 86 -263 0
488 -86 263 0
-488 86 263 0
-488 -86 -263 0
489 87 -264 0
489 -87 264 0
-489 87 264 0
-489 -87 -264 0
490 88 -265 0
490 -88 265 0
-490 88 265 0
-490 -88 -265 0
491 89 -266 0
491 -89 266 0
-491 89 266 0
-491 -89 -266 0
492 90 -267 0
492 -90 267 0
-492 90 267 0
-492 -90 -267 0
493 91 -268 0
493 -91 268 0
-493 91 268 0
-493 -91 -268 0
494 92 -269 0
494 -92 269 0
-494 92 269 0
-494 -92 -269 0
495 93 -270 0
495 -93 270 0
-495 93 270 0
-495 -93 -270 0
496 94 -271 0
496 -94 271 0
-496 94 271 0
-496 -94 -271 0
497 95 -272 0
497 -95 272 0
-497 95 272 0
-497 -95 -272 0
498 96 -273 0
498 -96 273 0
-498 96 273 0
-498 -96 -273 0
499 483 484 485 486 487 488 489 490 491 492 493 494 495 496 497 498 0
-499 -498 0
-499 -497 0
-499 -496 0
-499 -495 0
-499 -494 0
-499 -493 0
-499 -492 0
-499 -491 0
-499 -490 0
-499 -489 0
-499 -488 0
-499 -487 0
-499 -486 0
-499 -485 0
-499 -484 0
-499 -483 0
500 -159 -192 -241 -290 321 -365 -384 -385 -402 -465 -482 -499 0
-500 499 0
-500 482 0
-500 465 0
-500 402 0
-500 385 0
-500 384 0
-500 365 0
-500 -321 0
-500 290 0
-500 241 0
-500 192 0
-500 159 0
533 501 -517 0
-533 -501 0
-533 517 0
534 501 0
534 -517 0
534 -533 0
-534 -501 517 533 0
535 502 -518 0
-535 -502 0
-535 518 0
536 -518 -534 0
-536 534 0
-536 518 0
537 502 -534 0
-537 534 0
-537 -502 0
538 -537 0
538 -536 0
538 -535 0
-538 535 536 537 0
539 503 -519 0
-539 -503 0
-539 519 0
540 -519 -538 0
-540 538 0
-540 519 0
541 503 -538 0
-541 538 0
-541 -503 0
542 -541 0
542 -540 0
542 -539 0
-542 539 540 541 0
543 504 -520 0
-543 -504 0
-543 520 0
544 -520 -542 0
-544 542 0
-544 520 0
545 504 -542 0
-545 542 0
-545 -504 0
546 -545 0
546 -544 0
546 -543 0
-546 543 544 545 0
547 505 -521 0
-547 -505 0
-547 521 0
548 -521 -546 0
-548 546 0
-548 521 0
549 505 -546 0
-549 546 0
-549 -505 0
550 -549 0
550 -548 0
550 -547 0
-550 547 548 549 0
551 506 -522 0
-551 -506 0
-551 522 0
552 -522 -550 0
-552 550 0
-552 522 0
553 506 -550 0
-553 550 0
-553 -506 0
554 -553 0
554 -552 0
554 -551 0
-554 551 552 553 0
555 507 -523 0
-555 -507 0
-555 523 0
556 -523 -554 0
-556 554 0
-556 523 0
557 507 -554 0
-557 554 0
-557 -507 0
558 -557 0
558 -556 0
558 -555 0
-558 555 556 557 0
559 508 -524 0
-559 -508 0
-559 524 0
560 -524 -558 0
-560 558 0
-560 524 0
561 508 -558 0
-561 558 0
-561 -508 0
562 -561 0
562 -560 0
562 -559 0
-562 559 560 561 0
563 509 -525 0
-563 -509 0
-563 525 0
564 -525 -562 0
-564 562 0
-564 525 0
565 509 -562 0
-565 562 0
-565 -509 0
566 -565 0
566 -564 0
566 -563 0
-566 563 564 565 0
567 510 -526 0
-567 -510 0
-567 526 0
568 -526 -566 0
-568 566 0
-568 526 0
569 510 -566 0
-569 566 0
-569 -510 0
570 -569 0
570 -568 0
570 -567 0
-570 567 568 569 0
571 511 -527 0
-571 -511 0
-571 527 0
572 -527 -570 0
-572 570 0
-572 527 0
573 511 -570 0
-573 570 0
-573 -511 0
574 -573 0
574 -572 0
574 -571 0
-574 571 572 573 0
575 512 -528 0
-575 -512 0
-575 528 0
576 -528 -574 0
-576 574 0
-576 528 0
577 512 -574 0
-577 574 0
-577 -512 0
578 -577 0
578 -576 0
578 -575 0
-578 575 576 577 0
579 513 -529 0
-579 -513 0
-579 529 0
580 -529 -578 0
-580 578 0
-580 529 0
581 513 -578 0
-581 578 0
-581 -513 0
582 -581 0
582 -580 0
582 -579 0
-582 579 580 581 0
583 514 -530 0
-583 -514 0
-583 530 0
584 -530 -582 0
-584 582 0
-584 530 0
585 514 -582 0
-585 582 0
-585 -514 0
586 -585 0
586 -584 0
586 -583 0
-586 583 584 585 0
587 515 -531 0
-587 -515 0
-587 531 0
588 -531 -586 0
-588 586 0
-588 531 0
589 515 -586 0
-589 586 0
-589 -515 0
590 -589 0
590 -588 0
590 -587 0
-590 587 588 589 0
591 516 -532 0
-591 -516 0
-591 532 0
592 -532 -590 0
-592 590 0
-592 532 0
593 516 -590 0
-593 590 0
-593 -516 0
594 -593 0
594 -592 0
594 -591 0
-594 591 592 593 0
596 0
-596 594 -595 0
629 597 -613 0
-629 -597 0
-629 613 0
630 597 0
630 -613 0
630 -629 0
-630 -597 613 629 0
631 598 -614 0
-631 -598 0
-631 614 0
632 -614 -630 0
-632 630 0
-632 614 0
633 598 -630 0
-633 630 0
-633 -598 0
634 -633 0
634 -632 0
634 -631 0
-634 631 632 633 0
635 599 -615 0
-635 -599 0
-635 615 0
636 -615 -634 0
-636 634 0
-636 615 0
637 599 -634 0
-637 634 0
-637 -599 0
638 -637 0
638 -636 0
638 -635 0
-638 635 636 637 0
639 600 -616 0
-639 -600 0
-639 616 0
640 -616 -638 0
-640 638 0
-640 616 0
641 600 -638 0
-641 638 0
-641 -600 0
642 -641 0
642 -640 0
642 -639 0
-642 639 640 641 0
643 601 -617 0
-643 -601 0
-643 617 0
644 -617 -642 0
-644 642 0
-644 617 0
645 601 -642 0
-645 642 0
-645 -601 0
646 -645 0
646 -644 0
646 -643 0
-646 643 644 645 0
647 602 -618 0
-647 -602 0
-647 618 0
648 -618 -646 0
-648 646 0
-648 618 0
649 602 -646 0
-649 646 0
-649 -602 0
650 -649 0
650 -648 0
650 -647 0
-650 647 648 649 0
651 603 -619 0
-651 -603 0
-651 619 0
652 -619 -650 0
-652 650 0
-652 619 0
653 603 -650 0
-653 650 0
-653 -603 0
654 -653 0
654 -652 0
654 -651 0
-654 651 652 653 0
655 604 -620 0
-655 -604 0
-655 620 0
656 -620 -654 0
-656 654 0
-656 620 0
657 604 -654 0
-657 654 0
-657 -604 0
658 -657 0
658 -656 0
658 -655 0
-658 655 656 657 0
659 605 -621 0
-659 -605 0
-659 621 0
660 -621 -658 0
-660 658 0
-660 621 0
661 605 -658 0
-661 658 0
-661 -605 0
662 -661 0
662 -660 0
662 -659 0
-662 659 660 661 0
663 606 -622 0
-663 -606 0
-663 622 0
664 -622 -662 0
-664 662 0
-664 622 0
665 606 -662 0
-665 662 0
-665 -606 0
666 -665 0
666 -664 0
666 -663 0
-666 663 664 665 0
667 607 -623 0
-667 -607 0
-667 623 0
668 -623 -666 0
-668 666 0
-668 623 0
669 607 -666 0
-669 666 0
-669 -607 0
670 -669 0
670 -668 0
670 -667 0
-670 667 668 669 0
671 608 -624 0
-671 -608 0
-671 624 0
672 -624 -670 0
-672 670 0
-672 624 0
673 608 -670 0
-673 670 0
-673 -608 0
674 -673 0
674 -672 0
674 -671 0
-674 671 672 673 0
675 609 -625 0
-675 -609 0
-675 625 0
676 -625 -674 0
-676 674 0
-676 625 0
677 609 -674 0
-677 674 0
-677 -609 0
678 -677 0
678 -676 0
678 -675 0
-678 675 676 677 0
679 610 -626 0
-679 -610 0
-679 626 0
680 -626 -678 0
-680 678 0
-680 626 0
681 610 -678 0
-681 678 0
-681 -610 0
682 -681 0
682 -680 0
682 -679 0
-682 679 680 681 0
683 611 -627 0
-683 -611 0
-683 627 0
684 -627 -682 0
-684 682 0
-684 627 0
685 611 -682 0
-685 682 0
-685 -611 0
686 -685 0
686 -684 0
686 -683 0
-686 683 684 685 0
687 612 -628 0
-687 -612 0
-687 628 0
688 -628 -686 0
-688 686 0
-688 628 0
689 612 -686 0
-689 686 0
-689 -612 0
690 -689 0
690 -688 0
690 -687 0
-690 687 688 689 0
692 0
-692 690 -691 0
725 693 -709 0
-725 -693 0
-725 709 0
726 693 0
726 -709 0
726 -725 0
-726 -693 709 725 0
727 694 -710 0
-727 -694 0
-727 710 0
728 -710 -726 0
-728 726 0
-728 710 0
729 694 -726 0
-729 726 0
-729 -694 0
730 -729 0
730 -728 0
730 -727 0
-730 727 728 729 0
731 695 -711 0
-731 -695 0
-731 711 0
732 -711 -730 0
-732 730 0
-732 711 0
733 695 -730 0
-733 730 0
-733 -695 0
734 -733 0
734 -732 0
734 -731 0
-734 731 732 733 0
735 696 -712 0
-735 -696 0
-735 712 0
736 -712 -734 0
-736 734 0
-736 712 0
737 696 -734 0
-737 734 0
-737 -696 0
738 -737 0
738 -736 0
738 -735 0
-738 735 736 737 0
739 697 -713 0
-739 -697 0
-739 713 0
740 -713 -738 0
-740 738 0
-740 713 0
741 697 -738 0
-741 738 0
-741 -697 0
742 -741 0
742 -740 0
742 -739 0
-742 739 740 741 0
743 698 -714 0
-743 -698 0
-743 714 0
744 -714 -742 0
-744 742 0
-744 714 0
745 698 -742 0
-745 742 0
-745 -698 0
746 -745 0
746 -744 0
746 -743 0
-746 743 744 745 0
747 699 -715 0
-747 -699 0
-747 715 0
748 -715 -746 0
-748 746 0
-748 715 0
749 699 -746 0
-749 746 0
-749 -699 0
750 -749 0
750 -748 0
750 -747 0
-750 747 748 749 0
751 700 -716 0
-751 -700 0
-751 716 0
752 -716 -750 0
-752 750 0
-752 716 0
753 700 -750 0
-753 750 0
-753 -700 0
754 -753 0
754 -752 0
754 -751 0
-754 751 752 753 0
755 701 -717 0
-755 -701 0
-755 717 0
756 -717 -754 0
-756 754 0
-756 717 0
757 701 -754 0
-757 754 0
-757 -701 0
758 -757 0
758 -756 0
758 -755 0
-758 755 756 757 0
759 702 -718 0
-759 -702 0
-759 718 0
760 -718 -758 0
-760 758 0
-760 718 0
761 702 -758 0
-761 758 0
-761 -702 0
762 -761 0
762 -760 0
762 -759 0
-762 759 760 761 0
763 703 -719 0
-763 -703 0
-763 719 0
764 -719 -762 0
-764 762 0
-764 719 0
765 703 -762 0
-765 762 0
-765 -703 0
766 -765 0
766 -764 0
766 -763 0
-766 763 764 765 0
767 704 -720 0
-767 -704 0
-767 720 0
768 -720 -766 0
-768 766 0
-768 720 0
769 704 -766 0
-769 766 0
-769 -704 0
770 -769 0
770 -768 0
770 -767 0
-770 767 768 769 0
771 705 -721 0
-771 -705 0
-771 721 0
772 -721 -770 0
-772 770 0
-772 721 0
773 705 -770 0
-773 770 0
-773 -705 0
774 -773 0
774 -772 0
774 -771 0
-774 771 772 773 0
775 706 -722 0
-775 -706 0
-775 722 0
776 -722 -774 0
-776 774 0
-776 722 0
777 706 -774 0
-777 774 0
-777 -706 0
778 -777 0
778 -776 0
778 -775 0
-778 775 776 777 0
779 707 -723 0
-779 -707 0
-779 723 0
780 -723 -778 0
-780 778 0
-780 723 0
781 707 -778 0
-781 778 0
-781 -707 0
782 -781 0
782 -780 0
782 -779 0
-782 779 780 781 0
783 708 -724 0
-783 -708 0
-783 724 0
784 -724 -782 0
-784 782 0
-784 724 0
785 708 -782 0
-785 782 0
-785 -708 0
786 -785 0
786 -784 0
786 -783 0
-786 783 784 785 0
788 0
-788 786 -787 0
789 -500 0
789 594 690 786 0
-789 -786 0
-789 -690 0
-789 -594 0
790 1 -49 0
790 -1 49 0
-790 1 49 0
-790 -1 -49 0
791 2 -50 0
791 -2 50 0
-791 2 50 0
-791 -2 -50 0
792 3 -51 0
792 -3 51 0
-792 3 51 0
-792 -3 -51 0
793 4 -52 0
793 -4 52 0
-793 4 52 0
-793 -4 -52 0
794 5 -53 0
794 -5 53 0
-794 5 53 0
-794 -5 -53 0
795 6 -54 0
795 -6 54 0
-795 6 54 0
-795 -6 -54 0
796 7 -55 0
796 -7 55 0
-796 7 55 0
-796 -7 -55 0
797 8 -56 0
797 -8 56 0
-797 8 56 0
-797 -8 -56 0
798 9 -57 0
798 -9 57 0
-798 9 57 0
-798 -9 -57 0
799 10 -58 0
799 -10 58 0
-799 10 58 0
-799 -10 -58 0
800 11 -59 0
800 -11 59 0
-800 11 59 0
-800 -11 -59 0
801 12 -60 0
801 -12 60 0
-801 12 60 0
-801 -12 -60 0
802 13 -61 0
802 -13 61 0
-802 13 61 0
-802 -13 -61 0
803 14 -62 0
803 -14 62 0
-803 14 62 0
-803 -14 -62 0
804 15 -63 0
804 -15 63 0
-804 15 63 0
-804 -15 -63 0
805 16 -64 0
805 -16 64 0
-805 16 64 0
-805 -16 -64 0
806 790 791 792 793 794 795 796 797 798 799 800 801 802 803 804 805 0
-806 -805 0
-806 -804 0
-806 -803 0
-806 -802 0
-806 -801 0
-806 -800 0
-806 -799 0
-806 -798 0
-806 -797 0
-806 -796 0
-806 -795 0
-806 -794 0
-806 -793 0
-806 -792 0
-806 -791 0
-806 -790 0
807 501 -517 0
807 -501 517 0
-807 501 517 0
-807 -501 -517 0
808 502 -518 0
808 -502 518 0
-808 502 518 0
-808 -502 -518 0
809 503 -519 0
809 -503 519 0
-809 503 519 0
-809 -503 -519 0
810 504 -520 0
810 -504 520 0
-810 504 520 0
-810 -504 -520 0
811 505 -521 0
811 -505 521 0
-811 505 521 0
-811 -505 -521 0
812 506 -522 0
812 -506 522 0
-812 506 522 0
-812 -506 -522 0
813 507 -523 0
813 -507 523 0
-813 507 523 0
-813 -507 -523 0
814 508 -524 0
814 -508 524 0
-814 508 524 0
-814 -508 -524 0
815 509 -525 0
815 -509 525 0
-815 509 525 0
-815 -509 -525 0
816 510 -526 0
816 -510 526 0
-816 510 526 0
-816 -510 -526 0
817 511 -527 0
817 -511 527 0
-817 511 527 0
-817 -511 -527 0
818 512 -528 0
818 -512 528 0
-818 512 528 0
-818 -512 -528 0
819 513 -529 0
819 -513 529 0
-819 513 529 0
-819 -513 -529 0
820 514 -530 0
820 -514 530 0
-820 514 530 0
-820 -514 -530 0
821 515 -531 0
821 -515 531 0
-821 515 531 0
-821 -515 -531 0
822 516 -532 0
822 -516 532 0
-822 516 532 0
-822 -516 -532 0
823 -806 0
823 807 808 809 810 811 812 813 814 815 816 817 818 819 820 821 822 0
-823 -822 0
-823 -821 0
-823 -820 0
-823 -819 0
-823 -818 0
-823 -817 0
-823 -816 0
-823 -815 0
-823 -814 0
-823 -813 0
-823 -812 0
-823 -811 0
-823 -810 0
-823 -809 0
-823 -808 0
-823 -807 0
824 17 -65 0
824 -17 65 0
-824 17 65 0
-824 -17 -65 0
825 18 -66 0
825 -18 66 0
-825 18 66 0
-825 -18 -66 0
826 19 -67 0
826 -19 67 0
-826 19 67 0
-826 -19 -67 0
827 20 -68 0
827 -20 68 0
-827 20 68 0
-827 -20 -68 0
828 21 -69 0
828 -21 69 0
-828 21 69 0
-828 -21 -69 0
829 22 -70 0
829 -22 70 0
-829 22 70 0
-829 -22 -70 0
830 23 -71 0
830 -23 71 0
-830 23 71 0
-830 -23 -71 0
831 24 -72 0
831 -24 72 0
-831 24 72 0
-831 -24 -72 0
832 25 -73 0
832 -25 73 0
-832 25 73 0
-832 -25 -73 0
833 26 -74 0
833 -26 74 0
-833 26 74 0
-833 -26 -74 0
834 27 -75 0
834 -27 75 0
-834 27 75 0
-834 -27 -75 0
835 28 -76 0
835 -28 76 0
-835 28 76 0
-835 -28 -76 0
836 29 -77 0
836 -29 77 0
-836 29 77 0
-836 -29 -77 0
837 30 -78 0
837 -30 78 0
-837 30 78 0
-837 -30 -78 0
838 31 -79 0
838 -31 79 0
-838 31 79 0
-838 -31 -79 0
839 32 -80 0
839 -32 80 0
-839 32 80 0
-839 -32 -80 0
840 824 825 826 827 828 829 830 831 832 833 834 835 836 837 838 839 0
-840 -839 0
-840 -838 0
-840 -837 0
-840 -836 0
-840 -835 0
-840 -834 0
-840 -833 0
-840 -832 0
-840 -831 0
-840 -830 0
-840 -829 0
-840 -828 0
-840 -827 0
-840 -826 0
-840 -825 0
-840 -824 0
841 597 -613 0
841 -597 613 0
-841 597 613 0
-841 -597 -613 0
842 598 -614 0
842 -598 614 0
-842 598 614 0
-842 -598 -614 0
843 599 -615 0
843 -599 615 0
-843 599 615 0
-843 -599 -615 0
844 600 -616 0
844 -600 616 0
-844 600 616 0
-844 -600 -616 0
845 601 -617 0
845 -601 617 0
-845 601 617 0
-845 -601 -617 0
846 602 -618 0
846 -602 618 0
-846 602 618 0
-846 -602 -618 0
847 603 -619 0
847 -603 619 0
-847 603 619 0
-847 -603 -619 0
848 604 -620 0
848 -604 620 0
-848 604 620 0
-848 -604 -620 0
849 605 -621 0
849 -605 621 0
-849 605 621 0
-849 -605 -621 0
850 606 -622 0
850 -606 622 0
-850 606 622 0
-850 -606 -622 0
851 607 -623 0
851 -607 623 0
-851 607 623 0
-851 -607 -623 0
852 608 -624 0
852 -608 624 0
-852 608 624 0
-852 -608 -624 0
853 609 -625 0
853 -609 625 0
-853 609 625 0
-853 -609 -625 0
854 610 -626 0
854 -610 626 0
-854 610 626 0
-854 -610 -626 0
855 611 -627 0
855 -611 627 0
-855 611 627 0
-855 -611 -627 0
856 612 -628 0
856 -612 628 0
-856 612 628 0
-856 -612 -628 0
857 -840 0
857 841 842 843 844 845 846 847 848 849 850 851 852 853 854 855 856 0
-857 -856 0
-857 -855 0
-857 -854 0
-857 -853 0
-857 -852 0
-857 -851 0
-857 -850 0
-857 -849 0
-857 -848 0
-857 -847 0
-857 -846 0
-857 -845 0
-857 -844 0
-857 -843 0
-857 -842 0
-857 -841 0
858 33 -81 0
858 -33 81 0
-858 33 81 0
-858 -33 -81 0
859 34 -82 0
859 -34 82 0
-859 34 82 0
-859 -34 -82 0
860 35 -83 0
860 -35 83 0
-860 35 83 0
-860 -35 -83 0
861 36 -84 0
861 -36 84 0
-861 36 84 0
-861 -36 -84 0
862 37 -85 0
862 -37 85 0
-862 37 85 0
-862 -37 -85 0
863 38 -86 0
863 -38 86 0
-863 38 86 0
-863 -38 -86 0
864 39 -87 0
864 -39 87 0
-864 39 87 0
-864 -39 -87 0
865 40 -88 0
865 -40 88 0
-865 40 88 0
-865 -40 -88 0
866 41 -89 0
866 -41 89 0
-866 41 89 0
-866 -41 -89 0
867 42 -90 0
867 -42 90 0
-867 42 90 0
-867 -42 -90 0
868 43 -91 0
868 -43 91 0
-868 43 91 0
-868 -43 -91 0
869 44 -92 0
869 -44 92 0
-869 44 92 0
-869 -44 -92 0
870 45 -93 0
870 -45 93 0
-870 45 93 0
-870 -45 -93 0
871 46 -94 0
871 -46 94 0
-871 46 94 0
-871 -46 -94 0
872 47 -95 0
872 -47 95 0
-872 47 95 0
-872 -47 -95 0
873 48 -96 0
873 -48 96 0
-873 48 96 0
-873 -48 -96 0
874 858 859 860 861 862 863 864 865 866 867 868 869 870 871 872 873 0
-874 -873 0
-874 -872 0
-874 -871 0
-874 -870 0
-874 -869 0
-874 -868 0
-874 -867 0
-874 -866 0
-874 -865 0
-874 -864 0
-874 -863 0
-874 -862 0
-874 -861 0
-874 -860 0
-874 -859 0
-874 -858 0
875 693 -709 0
875 -693 709 0
-875 693 709 0
-875 -693 -709 0
876 694 -710 0
876 -694 710 0
-876 694 710 0
-876 -694 -710 0
877 695 -711 0
877 -695 711 0
-877 695 711 0
-877 -695 -711 0
878 696 -712 0
878 -696 712 0
-878 696 712 0
-878 -696 -712 0
879 697 -713 0
879 -697 713 0
-879 697 713 0
-879 -697 -713 0
880 698 -714 0
880 -698 714 0
-880 698 714 0
-880 -698 -714 0
881 699 -715 0
881 -699 715 0
-881 699 715 0
-881 -699 -715 0
882 700 -716 0
882 -700 716 0
-882 700 716 0
-882 -700 -716 0
883 701 -717 0
883 -701 717 0
-883 701 717 0
-883 -701 -717 0
884 702 -718 0
884 -702 718 0
-884 702 718 0
-884 -702 -718 0
885 703 -719 0
885 -703 719 0
-885 703 719 0
-885 -703 -719 0
886 704 -720 0
886 -704 720 0
-886 704 720 0
-886 -704 -720 0
887 705 -721 0
887 -705 721 0
-887 705 721 0
-887 -705 -721 0
888 706 -722 0
888 -706 722 0
-888 706 722 0
-888 -706 -722 0
889 707 -723 0
889 -707 723 0
-889 707 723 0
-889 -707 -723 0
890 708 -724 0
890 -708 724 0
-890 708 724 0
-890 -708 -724 0
891 -874 0
891 875 876 877 878 879 880 881 882 883 884 885 886 887 888 889 890 0
-891 -890 0
-891 -889 0
-891 -888 0
-891 -887 0
-891 -886 0
-891 -885 0
-891 -884 0
-891 -883 0
-891 -882 0
-891 -881 0
-891 -880 0
-891 -879 0
-891 -878 0
-891 -877 0
-891 -876 0
-891 -875 0
